c preprocessed version of BN_86, 38 vertices, 395 edges
p td 38 395
0 1
0 22
17 0
1 2
1 22
2 3
8 2
11 2
19 2
4 3
8 3
5 3
10 3
11 3
19 3
5 4
10 4
11 4
14 4
18 4
5 6
10 5
14 5
12 5
18 5
20 5
7 6
9 6
12 6
17 6
20 6
7 8
7 10
7 9
7 11
17 7
20 7
9 8
11 8
17 8
19 8
10 9
9 11
17 9
20 9
11 10
12 11
17 11
18 11
19 11
12 13
16 12
12 17
15 12
12 18
19 12
20 12
21 12
14 13
16 13
15 13
17 13
19 13
15 14
19 14
16 15
15 17
15 18
19 15
20 15
21 15
16 17
16 18
19 16
20 16
21 16
17 18
19 17
20 17
21 17
19 18
20 18
21 18
19 20
19 21
20 21
23 37
23 19
23 20
23 24
23 27
23 28
23 30
23 31
23 21
23 34
23 6
23 7
23 9
23 10
23 11
23 26
23 29
23 14
23 13
23 32
23 17
23 16
23 36
23 25
23 35
23 15
23 12
23 33
24 37
24 19
24 20
24 0
24 1
24 6
24 7
24 9
24 10
24 11
24 26
24 29
24 32
24 22
24 31
24 30
24 34
24 28
24 27
24 16
24 25
24 21
24 33
24 35
24 17
24 36
25 37
25 3
25 4
25 7
25 9
25 26
25 29
25 14
25 13
25 32
25 16
25 17
25 36
25 35
25 33
25 18
25 15
25 12
25 19
25 20
25 27
25 28
25 30
25 31
25 21
25 34
26 37
26 5
26 6
26 7
26 9
26 10
26 11
26 29
26 32
26 13
26 16
26 15
26 12
26 33
26 35
26 36
26 18
26 19
26 27
26 28
26 30
26 31
26 34
27 37
27 19
27 20
27 3
27 4
27 5
27 6
27 7
27 9
27 10
27 11
27 29
27 14
27 13
27 32
27 30
27 31
27 34
27 28
27 16
27 15
27 21
27 12
27 33
27 35
27 17
27 36
27 18
28 37
28 19
28 20
28 2
28 3
28 5
28 6
28 7
28 8
28 9
28 11
28 29
28 13
28 32
28 30
28 31
28 34
28 16
28 15
28 21
28 12
28 33
28 35
28 17
28 36
28 18
29 37
29 2
29 3
29 4
29 5
29 7
29 8
29 9
29 10
29 11
29 14
29 13
29 22
29 32
29 16
29 15
29 12
29 33
29 35
29 17
29 36
29 18
29 19
29 30
29 31
29 34
30 37
30 19
30 20
30 0
30 1
30 2
30 5
30 6
30 10
30 13
30 32
30 22
30 31
30 34
30 16
30 15
30 21
30 12
30 33
30 35
30 36
31 37
31 19
31 20
31 6
31 7
31 9
31 10
31 32
31 34
31 16
31 21
31 33
31 35
31 17
31 36
32 37
32 3
32 4
32 5
32 6
32 7
32 9
32 10
32 11
32 14
32 13
32 16
32 15
32 12
32 33
32 35
32 17
32 36
32 18
32 19
32 20
32 34
33 37
33 4
33 16
33 17
33 36
33 15
33 35
33 12
33 18
33 19
33 20
33 21
33 34
34 37
34 19
34 20
34 21
34 1
34 3
34 4
34 5
34 6
34 7
34 9
34 10
34 11
34 13
34 16
34 15
34 12
34 35
34 17
34 36
34 18
35 37
35 0
35 4
35 7
35 9
35 11
35 16
35 17
35 36
35 15
35 22
35 12
35 18
35 19
35 20
35 21
36 37
36 0
36 13
36 16
36 17
36 15
36 12
36 18
36 19
36 20
36 21
37 7
37 9
37 16
37 12
37 19
37 20
37 21
